StudentsNr = 10;
InstructorsNr = 32;
DaysNr = 1;
SlotsPerDay = 60;
AvailabilitySlotsLenght = 20;
RoomNr = 1;
ProgrammNr = 1;
DegreeNr = 3;
RolesNr = 2;
CoursesNr = 3;
InstructorsProgramm = [{1}, {1}, {1}, {1}, {1}, {1}, {1}, {1}, {1}, {1}, {1}, {1}, {1}, {1}, {1}, {1}, {1}, {1}, {1}, {1}, {1}, {1}, {1}, {1}, {1}, {1}, {1}, {1}, {1}, {1}, {1}, {1}];
InstructorRolesPerProgramm = [|{2, 6, 7, 8, 10, 13, 17, 19, 20, 22, 24, 26, 28, 30, 32}, {3, 4, 5, 8, 11, 12, 13, 14, 16, 17, 19, 20, 21, 22, 24, 27, 29, 31, 32}|];
InstructorsAvailability = [|1, 0, 1, |1, 1, 1, |0, 1, 0, |0, 0, 1, |0, 0, 1, |0, 0, 0, |0, 0, 0, |1, 0, 1, |1, 1, 1, |1, 1, 0, |0, 0, 1, |0, 1, 1, |0, 0, 0, |1, 1, 0, |0, 1, 1, |1, 0, 0, |1, 0, 0, |0, 1, 1, |1, 1, 1, |1, 1, 1, |0, 1, 1, |0, 1, 1, |1, 1, 1, |0, 0, 0, |0, 0, 1, |0, 1, 1, |0, 0, 1, |1, 1, 1, |1, 1, 1, |0, 1, 1, |1, 0, 1, |1, 1, 1|];
StudentsProgramm = [1, 1, 1, 1, 1, 1, 1, 1, 1, 1];
StudentsDegree = [3, 3, 1, 1, 2, 2, 3, 2, 1, 1];
StudentsSupervisorId = [29, 18, 28, 25, 25, 4, 15, 29, 6, 26];
StudentsCourseIds = [{2, 3}, {1, 2}, {1, 2, 3}, {1, 2, 3}, {1, 2, 3}, {1, 2, 3}, {2, 3}, {1, 2, 3}, {1, 2, 3}, {1, 2, 3}];
StudentsAvailability = [|0, 0, 0, |0, 0, 0, |1, 1, 0, |1, 1, 0, |0, 0, 0, |0, 0, 0, |0, 0, 1, |0, 1, 1, |1, 1, 1, |1, 1, 1|];
TheoryticalMinCard = [0, 0, 0, 0, 0, 0, 1, 0, 0, 0];
CoursesInstructorIds = [{13, 15, 17, 18, 20, 25, 26, 29, 30}, {1, 3, 5, 17, 19, 20, 25, 32}, {1, 5, 6, 7, 8, 9, 11, 14, 16, 19, 20, 23, 26, 28, 31, 32}];
RolesDemands = [2, 16];
RolesContinuity = [1];
ExamLen = [2, 2, 1, 1, 1, 1, 2, 1, 1, 1];
LunchTsMinLen = 0;
LunchStarts = [20..40];
SupervisorAvailable = 0;
OptimalLunchLenght = [2, 1];
OptimalStartTs = [2, 0];
OptimalFinishTs = [2, 60];
MinimizeRooms = 0;
RolesSoftContinuity = [|1, 2|0, 2|];
SameDegreeInRoom = 20;
Mergeability = 2;
